
  23    0


   0  13 2 4 5 6 9 10 11 17 18 19 20 21 22 
   7   2 14 3 
   7   2 12 7 
   4   2 16 8 
   6   2 12 7 
   9   2 14 12 
   4   1 13 
   9   1 14 
   3   1 15 
   3   1 13 
   2   1 12 
   8   1 23
   6   1 23
   8   1 23
   8   1 23
   5   1 23
   1   1 23
   5   1 23
   5   1 23
   9   1 23
   1   1 23
   5   1 23
   0   0 
